<?xml version = "1.0" standalone="yes"?>
<!-- This file has been generated by DOcplex version 2.23.222  -->
<CPLEXSolution version="1.0">
 <header
   problemName="CVRP"
   objectiveValue="14470.1"
  />
 <variables>
  <variable name="x_0_2" index="1" value="1.00000"/>
  <variable name="x_0_3" index="2" value="1.00000"/>
  <variable name="x_0_4" index="3" value="1.00000"/>
  <variable name="x_0_6" index="5" value="1.00000"/>
  <variable name="x_0_7" index="6" value="1.00000"/>
  <variable name="x_0_8" index="7" value="1.00000"/>
  <variable name="x_0_9" index="8" value="1.00000"/>
  <variable name="x_0_11" index="10" value="1.00000"/>
  <variable name="x_0_14" index="13" value="1.00000"/>
  <variable name="x_0_18" index="17" value="1.00000"/>
  <variable name="x_0_19" index="18" value="1.00000"/>
  <variable name="x_0_21" index="20" value="1.00000"/>
  <variable name="x_1_0" index="22" value="1.00000"/>
  <variable name="x_2_1" index="45" value="1.00000"/>
  <variable name="x_3_0" index="66" value="1.00000"/>
  <variable name="x_4_17" index="104" value="1.00000"/>
  <variable name="x_5_12" index="121" value="1.00000"/>
  <variable name="x_6_10" index="141" value="1.00000"/>
  <variable name="x_7_0" index="154" value="1.00000"/>
  <variable name="x_8_22" index="197" value="1.00000"/>
  <variable name="x_9_16" index="213" value="1.00000"/>
  <variable name="x_10_0" index="220" value="1.00000"/>
  <variable name="x_11_0" index="242" value="1.00000"/>
  <variable name="x_12_0" index="264" value="1.00000"/>
  <variable name="x_13_0" index="286" value="1.00000"/>
  <variable name="x_14_0" index="308" value="1.00000"/>
  <variable name="x_15_20" index="349" value="1.00000"/>
  <variable name="x_16_5" index="357" value="1.00000"/>
  <variable name="x_17_15" index="389" value="1.00000"/>
  <variable name="x_18_0" index="396" value="1.00000"/>
  <variable name="x_19_0" index="418" value="1.00000"/>
  <variable name="x_20_0" index="440" value="1.00000"/>
  <variable name="x_21_0" index="462" value="1.00000"/>
  <variable name="x_22_13" index="497" value="1.00000"/>
  <variable name="u_1" index="506" value="54.00000"/>
  <variable name="u_2" index="507" value="36.00000"/>
  <variable name="u_3" index="508" value="53.00000"/>
  <variable name="u_4" index="509" value="9.00000"/>
  <variable name="u_5" index="510" value="48.00000"/>
  <variable name="u_6" index="511" value="30.00000"/>
  <variable name="u_7" index="512" value="54.00000"/>
  <variable name="u_8" index="513" value="26.00000"/>
  <variable name="u_9" index="514" value="11.00000"/>
  <variable name="u_10" index="515" value="41.00000"/>
  <variable name="u_11" index="516" value="54.00000"/>
  <variable name="u_12" index="517" value="53.00000"/>
  <variable name="u_13" index="518" value="54.00000"/>
  <variable name="u_14" index="519" value="52.00000"/>
  <variable name="u_15" index="520" value="36.00000"/>
  <variable name="u_16" index="521" value="28.00000"/>
  <variable name="u_17" index="522" value="30.00000"/>
  <variable name="u_18" index="523" value="52.00000"/>
  <variable name="u_19" index="524" value="44.00000"/>
  <variable name="u_20" index="525" value="54.00000"/>
  <variable name="u_21" index="526" value="47.00000"/>
  <variable name="u_22" index="527" value="52.00000"/>
 </variables>
</CPLEXSolution>
